certificates/rado_a12_c76_N33.cnf
c Rad2 upper bound instance: x1 + 12*x2 - x3 = 76, interval [1,33]
p cnf 33 180
1 7 9 0
-1 -7 -9 0
1 8 21 0
-1 -8 -21 0
1 9 33 0
-1 -9 -33 0
2 7 10 0
-2 -7 -10 0
2 8 22 0
-2 -8 -22 0
3 7 11 0
-3 -7 -11 0
3 8 23 0
-3 -8 -23 0
4 7 12 0
-4 -7 -12 0
4 8 24 0
-4 -8 -24 0
1 5 6 0
-1 -5 -6 0
5 7 13 0
-5 -7 -13 0
5 8 25 0
-5 -8 -25 0
2 6 0
-2 -6 0
6 7 14 0
-6 -7 -14 0
6 8 26 0
-6 -8 -26 0
3 6 7 0
-3 -6 -7 0
7 15 0
-7 -15 0
7 8 27 0
-7 -8 -27 0
4 6 8 0
-4 -6 -8 0
7 8 16 0
-7 -8 -16 0
8 28 0
-8 -28 0
5 6 9 0
-5 -6 -9 0
7 9 17 0
-7 -9 -17 0
8 9 29 0
-8 -9 -29 0
6 10 0
-6 -10 0
7 10 18 0
-7 -10 -18 0
8 10 30 0
-8 -10 -30 0
6 7 11 0
-6 -7 -11 0
7 11 19 0
-7 -11 -19 0
8 11 31 0
-8 -11 -31 0
6 8 12 0
-6 -8 -12 0
7 12 20 0
-7 -12 -20 0
8 12 32 0
-8 -12 -32 0
6 9 13 0
-6 -9 -13 0
7 13 21 0
-7 -13 -21 0
8 13 33 0
-8 -13 -33 0
6 10 14 0
-6 -10 -14 0
7 14 22 0
-7 -14 -22 0
6 11 15 0
-6 -11 -15 0
7 15 23 0
-7 -15 -23 0
6 12 16 0
-6 -12 -16 0
7 16 24 0
-7 -16 -24 0
1 5 17 0
-1 -5 -17 0
6 13 17 0
-6 -13 -17 0
7 17 25 0
-7 -17 -25 0
2 5 18 0
-2 -5 -18 0
6 14 18 0
-6 -14 -18 0
7 18 26 0
-7 -18 -26 0
3 5 19 0
-3 -5 -19 0
6 15 19 0
-6 -15 -19 0
7 19 27 0
-7 -19 -27 0
4 5 20 0
-4 -5 -20 0
6 16 20 0
-6 -16 -20 0
7 20 28 0
-7 -20 -28 0
5 21 0
-5 -21 0
6 17 21 0
-6 -17 -21 0
7 21 29 0
-7 -21 -29 0
5 6 22 0
-5 -6 -22 0
6 18 22 0
-6 -18 -22 0
7 22 30 0
-7 -22 -30 0
5 7 23 0
-5 -7 -23 0
6 19 23 0
-6 -19 -23 0
7 23 31 0
-7 -23 -31 0
5 8 24 0
-5 -8 -24 0
6 20 24 0
-6 -20 -24 0
7 24 32 0
-7 -24 -32 0
5 9 25 0
-5 -9 -25 0
6 21 25 0
-6 -21 -25 0
7 25 33 0
-7 -25 -33 0
5 10 26 0
-5 -10 -26 0
6 22 26 0
-6 -22 -26 0
5 11 27 0
-5 -11 -27 0
6 23 27 0
-6 -23 -27 0
5 12 28 0
-5 -12 -28 0
6 24 28 0
-6 -24 -28 0
1 4 29 0
-1 -4 -29 0
5 13 29 0
-5 -13 -29 0
6 25 29 0
-6 -25 -29 0
2 4 30 0
-2 -4 -30 0
5 14 30 0
-5 -14 -30 0
6 26 30 0
-6 -26 -30 0
3 4 31 0
-3 -4 -31 0
5 15 31 0
-5 -15 -31 0
6 27 31 0
-6 -27 -31 0
4 32 0
-4 -32 0
5 16 32 0
-5 -16 -32 0
6 28 32 0
-6 -28 -32 0
4 5 33 0
-4 -5 -33 0
5 17 33 0
-5 -17 -33 0
6 29 33 0
-6 -29 -33 0
