certificates/rado_a12_c76_N33.drat
6 -30 4 0
-30 4 -33 0
30 4 0
d 30 2 4 0
4 -33 0
d -30 4 -33 0
6 -33 0
-4 -33 0
d -5 -4 -33 0
-33 0
5 -6 0
-5 -6 0
d -5 -1 -6 0
-6 0
2 0
10 0
29 0
-7 0
14 0
15 0
11 0
3 0
25 0
-5 0
21 0
4 0
17 0
1 0
9 0
22 0
13 0
23 0
-32 0
-30 0
0
